p cnf 383 525
a 1 2 3 4 5 6 7 8 10 11 12 13 14 15 16 17 18 19 20 21 22 23 24 25 26 27 28 29 30 31 33 34 35 36 37 38 39 40 42 43 44 45 46 47 48 49 51 52 53 54 55 56 57 58 59 61 62 63 64 65 66 67 68 69 70 71 72 73 74 76 77 78 79 81 82 83 84 85 86 87 88 89 90 91 92 93 94 0
e 9 60 75 80 95 96 97 98 99 100 101 102 103 104 105 106 107 108 109 110 111 112 113 114 115 116 117 118 119 120 121 122 123 124 125 126 127 128 129 130 131 132 133 134 135 136 137 138 139 140 141 142 143 144 145 146 147 148 149 150 151 152 153 154 155 156 157 158 159 160 161 162 163 164 165 166 167 168 169 170 171 172 173 174 175 176 177 178 179 180 181 182 183 184 185 186 187 188 189 190 191 192 193 194 195 196 197 198 199 200 201 202 203 204 205 206 207 208 209 210 211 212 213 214 215 216 217 218 219 220 221 222 223 224 225 226 227 228 229 230 231 232 233 234 235 236 237 238 239 240 241 242 243 244 245 246 247 248 249 250 251 252 253 254 255 256 257 258 259 260 261 262 263 264 265 266 267 268 269 270 271 272 273 274 275 276 277 278 279 280 281 282 283 284 285 286 287 288 289 290 291 292 293 294 295 296 297 298 299 300 301 302 303 304 305 306 307 308 309 310 311 312 313 314 315 316 317 318 319 320 321 322 323 324 325 326 327 328 329 330 331 332 333 334 335 336 337 338 339 340 341 342 343 344 345 346 347 348 349 350 351 352 353 354 355 356 357 358 359 360 361 362 363 364 365 366 367 368 369 370 371 372 373 374 375 376 377 378 379 380 381 382 383 0
-383 0
383 -219 0
383 -234 0
383 -248 0
383 -301 0
383 -326 0
383 -351 0
383 -356 0
383 -361 0
383 -366 0
383 -370 0
383 -374 0
383 -378 0
383 -379 0
383 -380 0
383 -381 0
383 -382 0
-218 -217 -216 -215 -214 -247 -213 -212 -211 -350 382 0
-218 -217 -216 -215 -214 -213 -212 -211 -210 -300 381 0
-218 -217 -216 -215 -214 -213 -212 -211 -290 -200 380 0
-218 -217 -216 -215 -214 -213 -212 -211 -233 -325 379 0
-218 -217 -216 -215 -214 -247 -213 -212 -211 -300 -377 378 0
377 -375 0
377 -376 0
377 -272 0
377 -273 0
377 -274 0
-130 -129 -112 -111 -151 -266 376 0
-130 -129 -112 -111 -156 -357 375 0
-218 -217 -216 -215 -214 -213 -212 -211 -350 -210 -373 374 0
373 -371 0
373 -372 0
373 -332 0
373 -333 0
373 -334 0
-130 -129 -112 -111 -185 -330 372 0
-130 -129 -112 -111 -110 -362 371 0
-218 -217 -216 -215 -214 -213 -212 -211 -210 -325 -369 370 0
369 -367 0
369 -302 0
369 -303 0
369 -368 0
369 -304 0
-130 -129 -112 -111 -168 -310 368 0
-130 -129 -112 -111 -110 -352 367 0
-218 -217 -216 -215 -214 -213 -212 -211 -350 -233 -365 366 0
365 -363 0
365 -364 0
365 -327 0
365 -328 0
365 -329 0
-130 -129 -112 -111 -173 -335 364 0
-130 -129 -112 -111 -141 -362 363 0
362 -337 0
362 -338 0
362 -339 0
-218 -217 -216 -215 -214 -213 -212 -211 -300 -233 -360 361 0
360 -358 0
360 -359 0
360 -263 0
360 -264 0
360 -265 0
-130 -129 -112 -111 -275 -178 359 0
-130 -129 -112 -111 -141 -357 358 0
357 -277 0
357 -278 0
357 -279 0
-218 -217 -216 -215 -214 -247 -213 -212 -211 -325 -355 356 0
355 -353 0
355 -354 0
355 -307 0
355 -308 0
355 -309 0
-130 -129 -128 -112 -111 -305 354 0
-130 -129 -112 -111 -156 -352 353 0
352 -312 0
352 -313 0
352 -314 0
-218 -217 -216 -215 -214 -213 -212 -211 -350 -290 -340 351 0
350 -343 0
350 -346 0
350 -349 0
25 24 -348 -347 349 0
348 19 0
348 9 0
347 16 0
347 -9 0
23 22 -345 -344 346 0
345 17 0
345 9 0
344 15 0
344 -9 0
21 20 -342 -341 343 0
342 18 0
342 9 0
341 14 0
341 -9 0
340 -331 0
340 -336 0
340 -337 0
340 -338 0
340 -339 0
-130 -129 -112 -111 -271 339 0
-130 -129 -112 -111 -178 -258 338 0
-130 -129 -112 -111 -262 -168 337 0
-130 -129 -112 -111 -262 -335 336 0
335 -332 0
335 -333 0
335 -334 0
-130 -129 -112 -111 -168 334 0
-130 -129 -112 -111 -178 -185 333 0
-130 -129 -112 -111 -271 -110 332 0
-130 -129 -112 -111 -258 -330 331 0
330 -327 0
330 -328 0
330 -329 0
-130 -129 -112 -111 -178 329 0
-130 -129 -112 -111 -173 -168 328 0
-130 -129 -112 -111 -141 -271 327 0
-218 -217 -216 -215 -214 -213 -212 -211 -290 -325 -315 326 0
325 -318 0
325 -321 0
325 -324 0
25 62 -323 -322 324 0
323 60 0
323 19 0
322 -60 0
322 16 0
23 61 -320 -319 321 0
320 60 0
320 17 0
319 -60 0
319 15 0
21 59 -317 -316 318 0
317 60 0
317 18 0
316 -60 0
316 14 0
315 -306 0
315 -311 0
315 -312 0
315 -313 0
315 -314 0
-130 -129 -112 -111 -258 314 0
-130 -129 -112 -111 -151 -271 313 0
-130 -129 -112 -111 -262 -185 312 0
-130 -129 -112 -111 -271 -310 311 0
310 -307 0
310 -308 0
310 -309 0
-130 -129 -112 -111 -151 309 0
-130 -129 -128 -112 -111 -185 308 0
-130 -129 -112 -111 -156 -258 307 0
-130 -129 -112 -111 -262 -305 306 0
305 -302 0
305 -303 0
305 -304 0
-130 -129 -112 -111 -185 304 0
-130 -129 -112 -111 -151 -168 303 0
-130 -129 -112 -111 -258 -110 302 0
-218 -217 -216 -215 -214 -213 -212 -211 -300 -290 -280 301 0
300 -293 0
300 -296 0
300 -299 0
25 62 -298 -297 299 0
298 -75 0
298 16 0
297 75 0
297 19 0
23 61 -295 -294 296 0
295 75 0
295 17 0
294 -75 0
294 15 0
21 59 -292 -291 293 0
292 75 0
292 18 0
291 -75 0
291 14 0
290 -283 0
290 -286 0
290 -289 0
91 94 -288 -287 289 0
288 80 0
288 6 0
287 -80 0
287 3 0
90 93 -285 -284 286 0
285 80 0
285 4 0
284 -80 0
284 2 0
89 92 -282 -281 283 0
282 80 0
282 5 0
281 -80 0
281 1 0
280 -267 0
280 -276 0
280 -277 0
280 -278 0
280 -279 0
-130 -129 -112 -111 -262 279 0
-130 -129 -112 -111 -173 -258 278 0
-130 -129 -128 -112 -111 -271 277 0
-130 -129 -112 -111 -275 -271 276 0
275 -272 0
275 -273 0
275 -274 0
-130 -129 -128 -112 -111 274 0
-130 -129 -112 -111 -173 -151 273 0
-130 -129 -112 -111 -262 -156 272 0
271 -268 0
271 -269 0
271 -270 0
54 56 55 52 69 74 85 -256 -255 -166 -165 270 0
66 46 45 43 47 73 84 -253 -252 -163 -162 269 0
38 37 36 34 63 72 83 -250 -249 -160 -159 268 0
-130 -129 -112 -111 -266 -258 267 0
266 -263 0
266 -264 0
266 -265 0
-130 -129 -112 -111 -173 265 0
-130 -129 -128 -112 -111 -178 264 0
-130 -129 -112 -111 -262 -141 263 0
262 -259 0
262 -260 0
262 -261 0
54 55 69 74 78 70 85 -126 -125 -256 -255 261 0
67 66 46 45 73 77 84 -121 -120 -253 -252 260 0
37 36 76 64 63 72 83 -115 -114 -250 -249 259 0
258 -251 0
258 -254 0
258 -257 0
54 56 55 69 74 70 85 -149 -148 -256 -255 257 0
256 80 0
256 31 0
255 -80 0
255 28 0
67 66 46 45 47 73 84 -146 -145 -253 -252 254 0
253 80 0
253 29 0
252 -80 0
252 27 0
38 37 36 64 63 72 83 -143 -142 -250 -249 251 0
250 80 0
250 30 0
249 -80 0
249 26 0
-218 -217 -216 -215 -214 -247 -213 -212 -211 -200 -237 248 0
247 -240 0
247 -243 0
247 -246 0
13 12 -245 -244 246 0
245 6 0
245 9 0
244 3 0
244 -9 0
11 10 -242 -241 243 0
242 4 0
242 9 0
241 2 0
241 -9 0
7 8 -239 -238 240 0
239 5 0
239 9 0
238 1 0
238 -9 0
237 -131 0
237 -152 0
237 -235 0
237 -236 0
237 -157 0
-130 -129 -128 -112 -111 -221 236 0
-130 -129 -112 -111 -151 -181 235 0
-218 -217 -216 -215 -214 -213 -212 -211 -200 -233 -223 234 0
233 -226 0
233 -229 0
233 -232 0
13 -231 -230 91 232 0
231 60 0
231 6 0
230 -60 0
230 3 0
11 -228 -227 90 229 0
228 60 0
228 4 0
227 -60 0
227 2 0
8 -225 -224 89 226 0
225 60 0
225 5 0
224 -60 0
224 1 0
223 -220 0
223 -222 0
223 -174 0
223 -179 0
223 -180 0
-130 -129 -112 -111 -173 -221 222 0
221 -187 0
221 -188 0
221 -189 0
-130 -129 -112 -111 -178 -158 220 0
-218 -217 -216 -215 -214 -213 -212 -211 -210 -200 -190 219 0
218 5 0
218 -4 0
217 4 0
217 -6 0
216 3 0
216 -2 0
215 2 0
215 -1 0
214 16 0
214 -15 0
213 15 0
213 -14 0
212 17 0
212 -19 0
211 18 0
211 -17 0
210 -203 0
210 -206 0
210 -209 0
13 91 -208 -207 209 0
208 75 0
208 6 0
207 -75 0
207 3 0
11 90 -205 -204 206 0
205 75 0
205 4 0
204 -75 0
204 2 0
8 89 -202 -201 203 0
202 75 0
202 5 0
201 -75 0
201 1 0
200 -193 0
200 -196 0
200 -199 0
62 88 -198 -197 199 0
198 80 0
198 19 0
197 -80 0
197 16 0
61 87 -195 -194 196 0
195 80 0
195 17 0
194 -80 0
194 15 0
59 86 -192 -191 193 0
192 80 0
192 18 0
191 -80 0
191 14 0
190 -169 0
190 -186 0
190 -187 0
190 -188 0
190 -189 0
-130 -129 -112 -111 -110 189 0
-130 -129 -112 -111 -156 -168 188 0
-130 -129 -112 -111 -141 -185 187 0
-130 -129 -112 -111 -185 -181 186 0
185 -182 0
185 -183 0
185 -184 0
54 53 55 69 74 78 70 -108 -107 -149 -148 184 0
67 66 46 45 73 77 44 -146 -145 -101 -100 183 0
35 37 36 76 64 63 72 -98 -143 -142 -95 182 0
181 -174 0
181 -179 0
181 -180 0
-130 -129 -112 -111 -141 180 0
-130 -129 -112 -111 -156 -178 179 0
178 -175 0
178 -176 0
178 -177 0
54 53 55 52 69 74 78 -139 -138 -166 -165 177 0
66 46 45 43 73 77 44 -136 -135 -163 -162 176 0
35 37 36 34 76 63 72 -133 -132 -160 -159 175 0
-130 -129 -112 -111 -173 -110 174 0
173 -170 0
173 -171 0
173 -172 0
54 53 56 69 74 71 70 -126 -125 -139 -138 172 0
68 67 66 45 47 73 44 -121 -120 -136 -135 171 0
38 35 36 65 64 63 72 -115 -114 -133 -132 170 0
-130 -129 -112 -111 -168 -158 169 0
168 -161 0
168 -164 0
168 -167 0
54 53 56 55 52 69 74 -108 -107 -166 -165 167 0
166 58 0
166 9 0
165 57 0
165 -9 0
66 46 45 43 47 73 44 -163 -162 -101 -100 164 0
163 49 0
163 9 0
162 48 0
162 -9 0
38 35 37 36 34 63 72 -98 -160 -159 -95 161 0
160 40 0
160 9 0
159 39 0
159 -9 0
158 -131 0
158 -152 0
158 -157 0
-130 -129 -112 -111 -156 157 0
156 -153 0
156 -154 0
156 -155 0
53 56 55 69 51 70 82 -124 -123 -106 -105 155 0
81 67 66 46 47 44 42 -119 -118 -103 -102 154 0
38 33 35 37 -116 64 63 79 -113 -97 -96 153 0
-130 -129 -112 -111 -151 -141 152 0
151 -144 0
151 -147 0
151 -150 0
54 53 56 69 51 71 70 -124 -123 -149 -148 150 0
149 58 0
149 60 0
148 57 0
148 -60 0
68 67 66 45 47 44 42 -119 -118 -146 -145 147 0
146 60 0
146 49 0
145 48 0
145 -60 0
38 33 35 36 -116 65 64 63 -113 -143 -142 144 0
143 60 0
143 40 0
142 -60 0
142 39 0
141 -134 0
141 -137 0
141 -140 0
53 56 55 69 74 70 82 -139 -138 -106 -105 140 0
139 60 0
139 31 0
138 -60 0
138 28 0
81 67 66 46 47 73 44 -136 -135 -103 -102 137 0
136 60 0
136 29 0
135 -60 0
135 27 0
38 35 37 64 63 79 72 -133 -132 -97 -96 134 0
133 60 0
133 30 0
132 -60 0
132 26 0
-130 -129 -128 -112 -111 -110 131 0
130 27 0
130 -26 0
129 30 0
129 -29 0
128 -117 0
128 -122 0
128 -127 0
54 53 56 55 69 51 70 -126 -125 -124 -123 127 0
126 57 0
126 -75 0
125 75 0
125 58 0
124 31 0
124 9 0
123 28 0
123 -9 0
67 66 46 45 47 44 42 -121 -120 -119 -118 122 0
121 75 0
121 49 0
120 48 0
120 -75 0
119 29 0
119 9 0
118 27 0
118 -9 0
38 33 35 37 36 -116 64 63 -115 -114 -113 117 0
116 30 0
116 9 0
115 75 0
115 40 0
114 -75 0
114 39 0
113 26 0
113 -9 0
112 29 0
112 -31 0
111 28 0
111 -27 0
110 -99 0
110 -104 0
110 -109 0
53 56 69 74 71 70 82 -108 -107 -106 -105 109 0
108 75 0
108 31 0
107 -75 0
107 28 0
106 80 0
106 58 0
105 57 0
105 -80 0
81 68 67 66 47 73 44 -103 -102 -101 -100 104 0
103 80 0
103 49 0
102 48 0
102 -80 0
101 75 0
101 29 0
100 -75 0
100 27 0
38 35 65 64 63 79 72 -98 -97 -96 -95 99 0
98 -75 0
98 26 0
97 80 0
97 40 0
96 -80 0
96 39 0
95 75 0
95 30 0
